\ Model Model_copy
\ LP format - for model browsing. Use MPS format to capture full model detail.
\ Signature: 0x6d68e0359a4b9d0f
Maximize
 
Subject To
 R4712: - volume_DA[207] + deviation[207] = 15.41021103873928
 R4908: - volume_DA[403] + deviation[403] = 66.50696510285395
 CVar_aux[207]: - deviation[207] + VaR[0] + CVar_aux[207] >= 0
 CVar_aux[403]: - deviation[403] + VaR[0] + CVar_aux[403] >= 0
 CVaR_upper_limit[0]: CVaR[0] <= 3
 CVaR[0]: - VaR[0] + CVaR[0] - 0.0490196078431372 CVar_aux[0]
   - 0.0490196078431372 CVar_aux[1] - 0.0490196078431372 CVar_aux[2]
   - 0.0490196078431372 CVar_aux[3] - 0.0490196078431372 CVar_aux[4]
   - 0.0490196078431372 CVar_aux[5] - 0.0490196078431372 CVar_aux[6]
   - 0.0490196078431372 CVar_aux[7] - 0.0490196078431372 CVar_aux[8]
   - 0.0490196078431372 CVar_aux[9] - 0.0490196078431372 CVar_aux[10]
   - 0.0490196078431372 CVar_aux[11] - 0.0490196078431372 CVar_aux[12]
   - 0.0490196078431372 CVar_aux[13] - 0.0490196078431372 CVar_aux[14]
   - 0.0490196078431372 CVar_aux[15] - 0.0490196078431372 CVar_aux[16]
   - 0.0490196078431372 CVar_aux[17] - 0.0490196078431372 CVar_aux[18]
   - 0.0490196078431372 CVar_aux[19] - 0.0490196078431372 CVar_aux[20]
   - 0.0490196078431372 CVar_aux[21] - 0.0490196078431372 CVar_aux[22]
   - 0.0490196078431372 CVar_aux[23] - 0.0490196078431372 CVar_aux[24]
   - 0.0490196078431372 CVar_aux[25] - 0.0490196078431372 CVar_aux[26]
   - 0.0490196078431372 CVar_aux[27] - 0.0490196078431372 CVar_aux[28]
   - 0.0490196078431372 CVar_aux[29] - 0.0490196078431372 CVar_aux[30]
   - 0.0490196078431372 CVar_aux[31] - 0.0490196078431372 CVar_aux[32]
   - 0.0490196078431372 CVar_aux[33] - 0.0490196078431372 CVar_aux[34]
   - 0.0490196078431372 CVar_aux[35] - 0.0490196078431372 CVar_aux[36]
   - 0.0490196078431372 CVar_aux[37] - 0.0490196078431372 CVar_aux[38]
   - 0.0490196078431372 CVar_aux[39] - 0.0490196078431372 CVar_aux[40]
   - 0.0490196078431372 CVar_aux[41] - 0.0490196078431372 CVar_aux[42]
   - 0.0490196078431372 CVar_aux[43] - 0.0490196078431372 CVar_aux[44]
   - 0.0490196078431372 CVar_aux[45] - 0.0490196078431372 CVar_aux[46]
   - 0.0490196078431372 CVar_aux[47] - 0.0490196078431372 CVar_aux[48]
   - 0.0490196078431372 CVar_aux[49] - 0.0490196078431372 CVar_aux[50]
   - 0.0490196078431372 CVar_aux[51] - 0.0490196078431372 CVar_aux[52]
   - 0.0490196078431372 CVar_aux[53] - 0.0490196078431372 CVar_aux[54]
   - 0.0490196078431372 CVar_aux[55] - 0.0490196078431372 CVar_aux[56]
   - 0.0490196078431372 CVar_aux[57] - 0.0490196078431372 CVar_aux[58]
   - 0.0490196078431372 CVar_aux[59] - 0.0490196078431372 CVar_aux[60]
   - 0.0490196078431372 CVar_aux[61] - 0.0490196078431372 CVar_aux[62]
   - 0.0490196078431372 CVar_aux[63] - 0.0490196078431372 CVar_aux[64]
   - 0.0490196078431372 CVar_aux[65] - 0.0490196078431372 CVar_aux[66]
   - 0.0490196078431372 CVar_aux[67] - 0.0490196078431372 CVar_aux[68]
   - 0.0490196078431372 CVar_aux[69] - 0.0490196078431372 CVar_aux[70]
   - 0.0490196078431372 CVar_aux[71] - 0.0490196078431372 CVar_aux[72]
   - 0.0490196078431372 CVar_aux[73] - 0.0490196078431372 CVar_aux[74]
   - 0.0490196078431372 CVar_aux[75] - 0.0490196078431372 CVar_aux[76]
   - 0.0490196078431372 CVar_aux[77] - 0.0490196078431372 CVar_aux[78]
   - 0.0490196078431372 CVar_aux[79] - 0.0490196078431372 CVar_aux[80]
   - 0.0490196078431372 CVar_aux[81] - 0.0490196078431372 CVar_aux[82]
   - 0.0490196078431372 CVar_aux[83] - 0.0490196078431372 CVar_aux[84]
   - 0.0490196078431372 CVar_aux[85] - 0.0490196078431372 CVar_aux[86]
   - 0.0490196078431372 CVar_aux[87] - 0.0490196078431372 CVar_aux[88]
   - 0.0490196078431372 CVar_aux[89] - 0.0490196078431372 CVar_aux[90]
   - 0.0490196078431372 CVar_aux[91] - 0.0490196078431372 CVar_aux[92]
   - 0.0490196078431372 CVar_aux[93] - 0.0490196078431372 CVar_aux[94]
   - 0.0490196078431372 CVar_aux[95] - 0.0490196078431372 CVar_aux[96]
   - 0.0490196078431372 CVar_aux[97] - 0.0490196078431372 CVar_aux[98]
   - 0.0490196078431372 CVar_aux[99] - 0.0490196078431372 CVar_aux[100]
   - 0.0490196078431372 CVar_aux[101] - 0.0490196078431372 CVar_aux[102]
   - 0.0490196078431372 CVar_aux[103] - 0.0490196078431372 CVar_aux[104]
   - 0.0490196078431372 CVar_aux[105] - 0.0490196078431372 CVar_aux[106]
   - 0.0490196078431372 CVar_aux[107] - 0.0490196078431372 CVar_aux[108]
   - 0.0490196078431372 CVar_aux[109] - 0.0490196078431372 CVar_aux[110]
   - 0.0490196078431372 CVar_aux[111] - 0.0490196078431372 CVar_aux[112]
   - 0.0490196078431372 CVar_aux[113] - 0.0490196078431372 CVar_aux[114]
   - 0.0490196078431372 CVar_aux[115] - 0.0490196078431372 CVar_aux[116]
   - 0.0490196078431372 CVar_aux[117] - 0.0490196078431372 CVar_aux[118]
   - 0.0490196078431372 CVar_aux[119] - 0.0490196078431372 CVar_aux[120]
   - 0.0490196078431372 CVar_aux[121] - 0.0490196078431372 CVar_aux[122]
   - 0.0490196078431372 CVar_aux[123] - 0.0490196078431372 CVar_aux[124]
   - 0.0490196078431372 CVar_aux[125] - 0.0490196078431372 CVar_aux[126]
   - 0.0490196078431372 CVar_aux[127] - 0.0490196078431372 CVar_aux[128]
   - 0.0490196078431372 CVar_aux[129] - 0.0490196078431372 CVar_aux[130]
   - 0.0490196078431372 CVar_aux[131] - 0.0490196078431372 CVar_aux[132]
   - 0.0490196078431372 CVar_aux[133] - 0.0490196078431372 CVar_aux[134]
   - 0.0490196078431372 CVar_aux[135] - 0.0490196078431372 CVar_aux[136]
   - 0.0490196078431372 CVar_aux[137] - 0.0490196078431372 CVar_aux[138]
   - 0.0490196078431372 CVar_aux[139] - 0.0490196078431372 CVar_aux[140]
   - 0.0490196078431372 CVar_aux[141] - 0.0490196078431372 CVar_aux[142]
   - 0.0490196078431372 CVar_aux[143] - 0.0490196078431372 CVar_aux[144]
   - 0.0490196078431372 CVar_aux[145] - 0.0490196078431372 CVar_aux[146]
   - 0.0490196078431372 CVar_aux[147] - 0.0490196078431372 CVar_aux[148]
   - 0.0490196078431372 CVar_aux[149] - 0.0490196078431372 CVar_aux[150]
   - 0.0490196078431372 CVar_aux[151] - 0.0490196078431372 CVar_aux[152]
   - 0.0490196078431372 CVar_aux[153] - 0.0490196078431372 CVar_aux[154]
   - 0.0490196078431372 CVar_aux[155] - 0.0490196078431372 CVar_aux[156]
   - 0.0490196078431372 CVar_aux[157] - 0.0490196078431372 CVar_aux[158]
   - 0.0490196078431372 CVar_aux[159] - 0.0490196078431372 CVar_aux[160]
   - 0.0490196078431372 CVar_aux[161] - 0.0490196078431372 CVar_aux[162]
   - 0.0490196078431372 CVar_aux[163] - 0.0490196078431372 CVar_aux[164]
   - 0.0490196078431372 CVar_aux[165] - 0.0490196078431372 CVar_aux[166]
   - 0.0490196078431372 CVar_aux[167] - 0.0490196078431372 CVar_aux[168]
   - 0.0490196078431372 CVar_aux[169] - 0.0490196078431372 CVar_aux[170]
   - 0.0490196078431372 CVar_aux[171] - 0.0490196078431372 CVar_aux[172]
   - 0.0490196078431372 CVar_aux[173] - 0.0490196078431372 CVar_aux[174]
   - 0.0490196078431372 CVar_aux[175] - 0.0490196078431372 CVar_aux[176]
   - 0.0490196078431372 CVar_aux[177] - 0.0490196078431372 CVar_aux[178]
   - 0.0490196078431372 CVar_aux[179] - 0.0490196078431372 CVar_aux[180]
   - 0.0490196078431372 CVar_aux[181] - 0.0490196078431372 CVar_aux[182]
   - 0.0490196078431372 CVar_aux[183] - 0.0490196078431372 CVar_aux[184]
   - 0.0490196078431372 CVar_aux[185] - 0.0490196078431372 CVar_aux[186]
   - 0.0490196078431372 CVar_aux[187] - 0.0490196078431372 CVar_aux[188]
   - 0.0490196078431372 CVar_aux[189] - 0.0490196078431372 CVar_aux[190]
   - 0.0490196078431372 CVar_aux[191] - 0.0490196078431372 CVar_aux[192]
   - 0.0490196078431372 CVar_aux[193] - 0.0490196078431372 CVar_aux[194]
   - 0.0490196078431372 CVar_aux[195] - 0.0490196078431372 CVar_aux[196]
   - 0.0490196078431372 CVar_aux[197] - 0.0490196078431372 CVar_aux[198]
   - 0.0490196078431372 CVar_aux[199] - 0.0490196078431372 CVar_aux[200]
   - 0.0490196078431372 CVar_aux[201] - 0.0490196078431372 CVar_aux[202]
   - 0.0490196078431372 CVar_aux[203] - 0.0490196078431372 CVar_aux[204]
   - 0.0490196078431372 CVar_aux[205] - 0.0490196078431372 CVar_aux[206]
   - 0.0490196078431372 CVar_aux[207] - 0.0490196078431372 CVar_aux[208]
   - 0.0490196078431372 CVar_aux[209] - 0.0490196078431372 CVar_aux[210]
   - 0.0490196078431372 CVar_aux[211] - 0.0490196078431372 CVar_aux[212]
   - 0.0490196078431372 CVar_aux[213] - 0.0490196078431372 CVar_aux[214]
   - 0.0490196078431372 CVar_aux[215] - 0.0490196078431372 CVar_aux[216]
   - 0.0490196078431372 CVar_aux[217] - 0.0490196078431372 CVar_aux[218]
   - 0.0490196078431372 CVar_aux[219] - 0.0490196078431372 CVar_aux[220]
   - 0.0490196078431372 CVar_aux[221] - 0.0490196078431372 CVar_aux[222]
   - 0.0490196078431372 CVar_aux[223] - 0.0490196078431372 CVar_aux[224]
   - 0.0490196078431372 CVar_aux[225] - 0.0490196078431372 CVar_aux[226]
   - 0.0490196078431372 CVar_aux[227] - 0.0490196078431372 CVar_aux[228]
   - 0.0490196078431372 CVar_aux[229] - 0.0490196078431372 CVar_aux[230]
   - 0.0490196078431372 CVar_aux[231] - 0.0490196078431372 CVar_aux[232]
   - 0.0490196078431372 CVar_aux[233] - 0.0490196078431372 CVar_aux[234]
   - 0.0490196078431372 CVar_aux[235] - 0.0490196078431372 CVar_aux[236]
   - 0.0490196078431372 CVar_aux[237] - 0.0490196078431372 CVar_aux[238]
   - 0.0490196078431372 CVar_aux[239] - 0.0490196078431372 CVar_aux[240]
   - 0.0490196078431372 CVar_aux[241] - 0.0490196078431372 CVar_aux[242]
   - 0.0490196078431372 CVar_aux[243] - 0.0490196078431372 CVar_aux[244]
   - 0.0490196078431372 CVar_aux[245] - 0.0490196078431372 CVar_aux[246]
   - 0.0490196078431372 CVar_aux[247] - 0.0490196078431372 CVar_aux[248]
   - 0.0490196078431372 CVar_aux[249] - 0.0490196078431372 CVar_aux[250]
   - 0.0490196078431372 CVar_aux[251] - 0.0490196078431372 CVar_aux[252]
   - 0.0490196078431372 CVar_aux[253] - 0.0490196078431372 CVar_aux[254]
   - 0.0490196078431372 CVar_aux[255] - 0.0490196078431372 CVar_aux[256]
   - 0.0490196078431372 CVar_aux[257] - 0.0490196078431372 CVar_aux[258]
   - 0.0490196078431372 CVar_aux[259] - 0.0490196078431372 CVar_aux[260]
   - 0.0490196078431372 CVar_aux[261] - 0.0490196078431372 CVar_aux[262]
   - 0.0490196078431372 CVar_aux[263] - 0.0490196078431372 CVar_aux[264]
   - 0.0490196078431372 CVar_aux[265] - 0.0490196078431372 CVar_aux[266]
   - 0.0490196078431372 CVar_aux[267] - 0.0490196078431372 CVar_aux[268]
   - 0.0490196078431372 CVar_aux[269] - 0.0490196078431372 CVar_aux[270]
   - 0.0490196078431372 CVar_aux[271] - 0.0490196078431372 CVar_aux[272]
   - 0.0490196078431372 CVar_aux[273] - 0.0490196078431372 CVar_aux[274]
   - 0.0490196078431372 CVar_aux[275] - 0.0490196078431372 CVar_aux[276]
   - 0.0490196078431372 CVar_aux[277] - 0.0490196078431372 CVar_aux[278]
   - 0.0490196078431372 CVar_aux[279] - 0.0490196078431372 CVar_aux[280]
   - 0.0490196078431372 CVar_aux[281] - 0.0490196078431372 CVar_aux[282]
   - 0.0490196078431372 CVar_aux[283] - 0.0490196078431372 CVar_aux[284]
   - 0.0490196078431372 CVar_aux[285] - 0.0490196078431372 CVar_aux[286]
   - 0.0490196078431372 CVar_aux[287] - 0.0490196078431372 CVar_aux[288]
   - 0.0490196078431372 CVar_aux[289] - 0.0490196078431372 CVar_aux[290]
   - 0.0490196078431372 CVar_aux[291] - 0.0490196078431372 CVar_aux[292]
   - 0.0490196078431372 CVar_aux[293] - 0.0490196078431372 CVar_aux[294]
   - 0.0490196078431372 CVar_aux[295] - 0.0490196078431372 CVar_aux[296]
   - 0.0490196078431372 CVar_aux[297] - 0.0490196078431372 CVar_aux[298]
   - 0.0490196078431372 CVar_aux[299] - 0.0490196078431372 CVar_aux[300]
   - 0.0490196078431372 CVar_aux[301] - 0.0490196078431372 CVar_aux[302]
   - 0.0490196078431372 CVar_aux[303] - 0.0490196078431372 CVar_aux[304]
   - 0.0490196078431372 CVar_aux[305] - 0.0490196078431372 CVar_aux[306]
   - 0.0490196078431372 CVar_aux[307] - 0.0490196078431372 CVar_aux[308]
   - 0.0490196078431372 CVar_aux[309] - 0.0490196078431372 CVar_aux[310]
   - 0.0490196078431372 CVar_aux[311] - 0.0490196078431372 CVar_aux[312]
   - 0.0490196078431372 CVar_aux[313] - 0.0490196078431372 CVar_aux[314]
   - 0.0490196078431372 CVar_aux[315] - 0.0490196078431372 CVar_aux[316]
   - 0.0490196078431372 CVar_aux[317] - 0.0490196078431372 CVar_aux[318]
   - 0.0490196078431372 CVar_aux[319] - 0.0490196078431372 CVar_aux[320]
   - 0.0490196078431372 CVar_aux[321] - 0.0490196078431372 CVar_aux[322]
   - 0.0490196078431372 CVar_aux[323] - 0.0490196078431372 CVar_aux[324]
   - 0.0490196078431372 CVar_aux[325] - 0.0490196078431372 CVar_aux[326]
   - 0.0490196078431372 CVar_aux[327] - 0.0490196078431372 CVar_aux[328]
   - 0.0490196078431372 CVar_aux[329] - 0.0490196078431372 CVar_aux[330]
   - 0.0490196078431372 CVar_aux[331] - 0.0490196078431372 CVar_aux[332]
   - 0.0490196078431372 CVar_aux[333] - 0.0490196078431372 CVar_aux[334]
   - 0.0490196078431372 CVar_aux[335] - 0.0490196078431372 CVar_aux[336]
   - 0.0490196078431372 CVar_aux[337] - 0.0490196078431372 CVar_aux[338]
   - 0.0490196078431372 CVar_aux[339] - 0.0490196078431372 CVar_aux[340]
   - 0.0490196078431372 CVar_aux[341] - 0.0490196078431372 CVar_aux[342]
   - 0.0490196078431372 CVar_aux[343] - 0.0490196078431372 CVar_aux[344]
   - 0.0490196078431372 CVar_aux[345] - 0.0490196078431372 CVar_aux[346]
   - 0.0490196078431372 CVar_aux[347] - 0.0490196078431372 CVar_aux[348]
   - 0.0490196078431372 CVar_aux[349] - 0.0490196078431372 CVar_aux[350]
   - 0.0490196078431372 CVar_aux[351] - 0.0490196078431372 CVar_aux[352]
   - 0.0490196078431372 CVar_aux[353] - 0.0490196078431372 CVar_aux[354]
   - 0.0490196078431372 CVar_aux[355] - 0.0490196078431372 CVar_aux[356]
   - 0.0490196078431372 CVar_aux[357] - 0.0490196078431372 CVar_aux[358]
   - 0.0490196078431372 CVar_aux[359] - 0.0490196078431372 CVar_aux[360]
   - 0.0490196078431372 CVar_aux[361] - 0.0490196078431372 CVar_aux[362]
   - 0.0490196078431372 CVar_aux[363] - 0.0490196078431372 CVar_aux[364]
   - 0.0490196078431372 CVar_aux[365] - 0.0490196078431372 CVar_aux[366]
   - 0.0490196078431372 CVar_aux[367] - 0.0490196078431372 CVar_aux[368]
   - 0.0490196078431372 CVar_aux[369] - 0.0490196078431372 CVar_aux[370]
   - 0.0490196078431372 CVar_aux[371] - 0.0490196078431372 CVar_aux[372]
   - 0.0490196078431372 CVar_aux[373] - 0.0490196078431372 CVar_aux[374]
   - 0.0490196078431372 CVar_aux[375] - 0.0490196078431372 CVar_aux[376]
   - 0.0490196078431372 CVar_aux[377] - 0.0490196078431372 CVar_aux[378]
   - 0.0490196078431372 CVar_aux[379] - 0.0490196078431372 CVar_aux[380]
   - 0.0490196078431372 CVar_aux[381] - 0.0490196078431372 CVar_aux[382]
   - 0.0490196078431372 CVar_aux[383] - 0.0490196078431372 CVar_aux[384]
   - 0.0490196078431372 CVar_aux[385] - 0.0490196078431372 CVar_aux[386]
   - 0.0490196078431372 CVar_aux[387] - 0.0490196078431372 CVar_aux[388]
   - 0.0490196078431372 CVar_aux[389] - 0.0490196078431372 CVar_aux[390]
   - 0.0490196078431372 CVar_aux[391] - 0.0490196078431372 CVar_aux[392]
   - 0.0490196078431372 CVar_aux[393] - 0.0490196078431372 CVar_aux[394]
   - 0.0490196078431372 CVar_aux[395] - 0.0490196078431372 CVar_aux[396]
   - 0.0490196078431372 CVar_aux[397] - 0.0490196078431372 CVar_aux[398]
   - 0.0490196078431372 CVar_aux[399] - 0.0490196078431372 CVar_aux[400]
   - 0.0490196078431372 CVar_aux[401] - 0.0490196078431372 CVar_aux[402]
   - 0.0490196078431372 CVar_aux[403] - 0.0490196078431372 CVar_aux[404]
   - 0.0490196078431372 CVar_aux[405] - 0.0490196078431372 CVar_aux[406]
   - 0.0490196078431372 CVar_aux[407] = 0
Bounds
 volume_DA[207] >= -0.0001
 volume_DA[403] >= -0.0001
 deviation[207] free
 deviation[403] free
 CVaR[0] free
 CVar_aux[207] free
 CVar_aux[403] free
End
